NAME           
ROWS
 N  obj     
 E  c1      
 E  c2      
 E  c3      
 E  c4      
 E  c5      
 E  c6      
 E  c7      
COLUMNS
    s01       obj                  1   c1                   1
    s02       obj                 -1   c1                   1
    s11       obj                  1   c2                   1
    s12       obj                 -1   c2                   1
    s21       obj                  1   c3                   1
    s22       obj                 -1   c3                   1
    s31       obj                  1   c4                   1
    s32       obj                 -1   c4                   1
    s41       obj                  1   c5                   1
    s42       obj                 -1   c5                   1
    s51       obj                  1   c6                   1
    s52       obj                 -1   c6                   1
    s61       obj                  1   c7                   1
    s62       obj                 -1   c7                   1
    MARK0000  'MARKER'                 'INTORG'
    x0        c1                  74   c2                  20
    x0        c3                  85   c4                  13
    x0        c5                  35   c6                  86
    x0        c7                  41
    x1        c1                  49   c2                   7
    x1        c3                  47   c4                  71
    x1        c5                  61   c6                   8
    x1        c7                  64
    x2        c1                  12   c2                  68
    x2        c3                  67   c4                  78
    x2        c5                  66   c6                  44
    x2        c7                  82
    x3        c1                  93   c2                  69
    x3        c3                  59   c4                  84
    x3        c5                  78   c6                  96
    x3        c7                  24
    x4        c1                  56   c2                  95
    x4        c3                  84   c4                  56
    x4        c5                  46   c6                  64
    x4        c7                  48
    x5        c1                  16   c2                  64
    x5        c3                  59   c4                  66
    x5        c5                  89   c6                  65
    x5        c7                  41
    x6        c1                  39   c2                  76
    x6        c3                  19   c4                   8
    x6        c5                  61   c6                  68
    x6        c7                  29
    x7        c1                  77   c2                  12
    x7        c3                   8   c4                  68
    x7        c5                  25   c6                  53
    x7        c7                  93
    x8        c1                  56   c2                  45
    x8        c3                  50   c4                  48
    x8        c5                  55   c6                  19
    x8        c7                  64
    x9        c1                  73   c2                  43
    x9        c3                  66   c4                  28
    x9        c5                  16   c6                  33
    x9        c7                  39
    x10       c1                   1   c2                  83
    x10       c3                   5   c4                  33
    x10       c5                  81   c6                  28
    x10       c7                  92
    x11       c1                   3   c2                  15
    x11       c3                  51   c4                  34
    x11       c5                  35   c6                  42
    x11       c7                  86
    x12       c1                  68   c2                  90
    x12       c3                  51   c4                   8
    x12       c5                  96   c6                  72
    x12       c7                  64
    x13       c1                  61   c2                  10
    x13       c3                  64   c4                  99
    x13       c5                  23   c6                  39
    x13       c7                  45
    x14       c1                   8   c2                  96
    x14       c3                  64   c4                  80
    x14       c5                  83   c6                   5
    x14       c7                  87
    x15       c1                  55   c2                  98
    x15       c3                  53   c4                  74
    x15       c5                  39   c6                  77
    x15       c7                  34
    x16       c1                  18   c2                  53
    x16       c3                  61   c4                   2
    x16       c5                  14   c6                  37
    x16       c7                  39
    x17       c1                  21   c2                   1
    x17       c3                  45   c4                  10
    x17       c5                  53   c6                  89
    x17       c7                  88
    x18       c1                  57   c2                   2
    x18       c3                   3   c4                  96
    x18       c5                  23   c6                   7
    x18       c7                  99
    x19       c1                  98   c2                  58
    x19       c3                  76   c4                  41
    x19       c5                  23   c6                  78
    x19       c7                  63
    x20       c1                  58   c2                  24
    x20       c3                  17   c4                  98
    x20       c5                  93   c6                  10
    x20       c7                  85
    x21       c1                  57   c2                  90
    x21       c3                  54   c4                  74
    x21       c5                  38   c6                  78
    x21       c7                  48
    x22       c1                  46   c2                  29
    x22       c3                  13   c4                  39
    x22       c5                  15   c6                  10
    x22       c7                  83
    x23       c1                  72   c2                  57
    x23       c3                  89   c4                  91
    x23       c5                  20   c6                  96
    x23       c7                  88
    x24       c1                   6   c2                  19
    x24       c3                  68   c4                  85
    x24       c5                  19   c6                  55
    x24       c7                  85
    x25       c1                  16   c2                  73
    x25       c3                  57   c4                  95
    x25       c5                  28   c6                   1
    x25       c7                   5
    x26       c1                  76   c2                  89
    x26       c3                   4   c4                  96
    x26       c5                  79   c6                  64
    x26       c7                  14
    x27       c1                  21   c2                  31
    x27       c3                  24   c4                   1
    x27       c5                  51   c6                  61
    x27       c7                  31
    x28       c1                  78   c2                  12
    x28       c3                  96   c4                  80
    x28       c5                  24   c6                  63
    x28       c7                  12
    x29       c1                  18   c2                  34
    x29       c3                  81   c4                  90
    x29       c5                   6   c6                  90
    x29       c7                  93
    x30       c1                  11   c2                  67
    x30       c3                  36   c4                  97
    x30       c5                   3   c6                  22
    x30       c7                  55
    x31       c1                  58   c2                  48
    x31       c3                  54   c4                  36
    x31       c5                  47   c6                  78
    x31       c7                   1
    x32       c1                  59   c2                  11
    x32       c3                   3   c4                   7
    x32       c5                  61   c6                  92
    x32       c7                   2
    x33       c1                  25   c2                  22
    x33       c3                  82   c4                  69
    x33       c5                  60   c6                  25
    x33       c7                  22
    x34       c1                  32   c2                  36
    x34       c3                  33   c4                   9
    x34       c5                  71   c6                  24
    x34       c7                  93
    x35       c1                  14   c2                  78
    x35       c3                  88   c4                   9
    x35       c5                  63   c6                  65
    x35       c7                  49
    x36       c1                  16   c2                  75
    x36       c3                   1   c4                  93
    x36       c5                  26   c6                   6
    x36       c7                  35
    x37       c1                   3   c2                  52
    x37       c3                  29   c4                  94
    x37       c5                  66   c6                  68
    x37       c7                  25
    x38       c1                  60   c2                  95
    x38       c3                   4   c4                  44
    x38       c5                  71   c6                  66
    x38       c7                  39
    x39       c1                  12   c2                  57
    x39       c3                  48   c4                  36
    x39       c5                  63   c6                  66
    x39       c7                   1
    x40       c1                   7   c2                  62
    x40       c3                  51   c4                  71
    x40       c5                  56   c6                   1
    x40       c7                  77
    x41       c1                  42   c2                  94
    x41       c3                  14   c4                  37
    x41       c5                  32   c6                  67
    x41       c7                  43
    x42       c1                  98   c2                  10
    x42       c3                  86   c4                  72
    x42       c5                  39   c6                  78
    x42       c7                   7
    x43       c1                  34   c2                  42
    x43       c3                  64   c4                  38
    x43       c5                  31   c6                  21
    x43       c7                  42
    x44       c1                  33   c2                  89
    x44       c3                  73   c4                  74
    x44       c5                  64   c6                  47
    x44       c7                  36
    x45       c1                  16   c2                  11
    x45       c3                  78   c4                  89
    x45       c5                  89   c6                  17
    x45       c7                  63
    x46       c1                  97   c2                  77
    x46       c3                  45   c4                  37
    x46       c5                  62   c6                  89
    x46       c7                   5
    x47       c1                  63   c2                  85
    x47       c3                  65   c4                  24
    x47       c5                  68   c6                  77
    x47       c7                   8
    x48       c1                  66   c2                  30
    x48       c3                  30   c4                  88
    x48       c5                  59   c6                  88
    x48       c7                  43
    x49       c1                  28   c2                  82
    x49       c3                  52   c4                  77
    x49       c5                  71   c6                  54
    x49       c7                  18
    x50       c1                  57   c2                  20
    x50       c3                   6   c4                  61
    x50       c5                  48   c6                  10
    x50       c7                  60
    x51       c1                  19   c2                  52
    x51       c3                  78   c4                  80
    x51       c5                  76   c6                  87
    x51       c7                  47
    x52       c1                  74   c2                  78
    x52       c3                   9   c4                   2
    x52       c5                  96   c6                  88
    x52       c7                  47
    x53       c1                  44   c2                   6
    x53       c3                  19   c4                  60
    x53       c5                  74   c6                  80
    x53       c7                  46
    x54       c1                  45   c2                  57
    x54       c3                  87   c4                  87
    x54       c5                  61   c6                  76
    x54       c7                  45
    x55       c1                  49   c2                  65
    x55       c3                  73   c4                  80
    x55       c5                  21   c6                   9
    x55       c7                  38
    x56       c1                  76   c2                  79
    x56       c3                  10   c4                  74
    x56       c5                  46   c6                  83
    x56       c7                   9
    x57       c1                  74   c2                  83
    x57       c3                  87   c4                  42
    x57       c5                  18   c6                  95
    x57       c7                  37
    x58       c1                   9   c2                  16
    x58       c3                  33   c4                   2
    x58       c5                  23   c6                  86
    x58       c7                   8
    x59       c1                  44   c2                  67
    x59       c3                   1   c4                  37
    x59       c5                  24   c6                  24
    x59       c7                  82
    MARK0001  'MARKER'                 'INTEND'
RHS
    rhs       c1                1324   c2                1554
    rhs       c3                1429   c4                1686
    rhs       c5                1482   c6                1613
    rhs       c7                1424
BOUNDS
 FX bnd       s02                  0
 FX bnd       s12                  0
 FX bnd       s22                  0
 FX bnd       s32                  0
 FX bnd       s42                  0
 FX bnd       s52                  0
 FX bnd       s62                  0
 UP bnd       x0                   1
 UP bnd       x1                   1
 UP bnd       x2                   1
 UP bnd       x3                   1
 UP bnd       x4                   1
 UP bnd       x5                   1
 UP bnd       x6                   1
 UP bnd       x7                   1
 UP bnd       x8                   1
 UP bnd       x9                   1
 UP bnd       x10                  1
 UP bnd       x11                  1
 UP bnd       x12                  1
 UP bnd       x13                  1
 UP bnd       x14                  1
 UP bnd       x15                  1
 UP bnd       x16                  1
 UP bnd       x17                  1
 UP bnd       x18                  1
 UP bnd       x19                  1
 UP bnd       x20                  1
 UP bnd       x21                  1
 UP bnd       x22                  1
 UP bnd       x23                  1
 UP bnd       x24                  1
 UP bnd       x25                  1
 UP bnd       x26                  1
 UP bnd       x27                  1
 UP bnd       x28                  1
 UP bnd       x29                  1
 UP bnd       x30                  1
 UP bnd       x31                  1
 UP bnd       x32                  1
 UP bnd       x33                  1
 UP bnd       x34                  1
 UP bnd       x35                  1
 UP bnd       x36                  1
 UP bnd       x37                  1
 UP bnd       x38                  1
 UP bnd       x39                  1
 UP bnd       x40                  1
 UP bnd       x41                  1
 UP bnd       x42                  1
 UP bnd       x43                  1
 UP bnd       x44                  1
 UP bnd       x45                  1
 UP bnd       x46                  1
 UP bnd       x47                  1
 UP bnd       x48                  1
 UP bnd       x49                  1
 UP bnd       x50                  1
 UP bnd       x51                  1
 UP bnd       x52                  1
 UP bnd       x53                  1
 UP bnd       x54                  1
 UP bnd       x55                  1
 UP bnd       x56                  1
 UP bnd       x57                  1
 UP bnd       x58                  1
 UP bnd       x59                  1
ENDATA
